Translating instance to solver...

Set parameter TimeLimit to value 28800
Gurobi Optimizer version 11.0.2 build v11.0.2rc0 (linux64 - "Ubuntu 22.04.4 LTS")

CPU model: Intel(R) Xeon(R) Gold 5120 CPU @ 2.20GHz, instruction set [SSE2|AVX|AVX2|AVX512]
Thread count: 28 physical cores, 56 logical processors, using up to 28 threads

Academic license 2463511 - for non-commercial use only - registered to lu___@cefet-rj.br
Optimize a model with 24835 rows, 13713 columns and 58929 nonzeros
Model fingerprint: 0xdc559533
Variable types: 1 continuous, 13712 integer (13680 binary)
Coefficient statistics:
  Matrix range     [1e+00, 1e+05]
  Objective range  [3e-01, 8e-01]
  Bounds range     [1e+00, 3e+01]
  RHS range        [1e+00, 3e+01]
Presolve removed 21476 rows and 12274 columns
Presolve time: 0.28s
Presolved: 3359 rows, 1439 columns, 10983 nonzeros
Variable types: 0 continuous, 1439 integer (1408 binary)

Root relaxation: objective 6.117820e-01, 145 iterations, 0.00 seconds (0.00 work units)

    Nodes    |    Current Node    |     Objective Bounds      |     Work
 Expl Unexpl |  Obj  Depth IntInf | Incumbent    BestBd   Gap | It/Node Time

     0     0    0.61178    0   12          -    0.61178      -     -    0s
H    0     0                       0.6117820    0.61178  0.00%     -    0s

Explored 1 nodes (794 simplex iterations) in 0.45 seconds (0.36 work units)
Thread count was 28 (of 56 available processors)

Solution count 1: 0.611782 

Optimal solution found (tolerance 1.00e-04)
Best objective 6.117820000000e-01, best bound 6.117820000000e-01, gap 0.0000%

Solver Wallclock Time (for this epsilon): 0.44698405265808105 s
Python wallclock Time (for this epsilon): 2.2782886028289795 s


Total Elapsed Time (since program call): 37.555646657943726 s

Results:

I = 0.611782 mA
C = 12.0 points
C ~= 4.800000000000001 km^2

Minimum Epsilon for this instance = 10
Maximum Epsilon for this instance = 100

Current Epsilon = 10


Preprocessing Time (for this epsilon): 0.005191802978515625 s


Updated solution vectors:
sol_I = [-0.611782]
sol_C = [12.0]
sol_eps = [10]
sol_gap = [0.0]
